10	5
0	2	1	2
1	2	10	6
2	1	3
3	1	8
4	1	7
5	1	9
6	1	4
7	1	5
8	1	11
9	1	11
10	1	11
11	0
0	0	0	0	0	0	0
1	2	4	5	5	1	5
2	3	5	5	5	4	1
3	1	5	3	1	5	3
4	5	5	4	1	3	2
5	5	5	1	3	4	3
6	9	3	3	4	5	2
7	4	5	5	3	5	1
8	3	3	2	3	4	4
9	5	5	3	3	3	2
10	8	2	1	3	1	5
11	0	0	0	0	0	0
5	5	5	5	5
